%Chk=PLP_ideal_opt.chk
%Mem=64GB
%NProc=64
#B3LYP/6-311++G(d,p) Opt

 PLP opt

-2 1
N          2.05300       -0.01200        1.99100
C          1.28600       -0.00800        3.06000
C          1.91600       -0.02100        4.42900
C         -0.09800        0.00200        2.94200
O         -0.88400        0.00700        4.04700
C         -0.66800        0.02000        1.65700
C         -2.12900        0.03900        1.47600
O         -2.85900        0.04300        2.44400
C          0.19500        0.01500        0.55300
C          1.55700       -0.00100        0.76900
C         -0.35600        0.02700       -0.84900
O          0.72200        0.01800       -1.78500
P          0.06400        0.03200       -3.25400
O         -0.75900        1.25100       -3.41400
O          1.22900        0.02300       -4.36500
O         -0.86300       -1.27000       -3.43900
H          2.08000        1.00300        4.76300
H          1.25400       -0.53000        5.12900
H          2.87100       -0.54500        4.38400
H         -1.06100       -0.91700        4.26800
H         -2.55000        0.04800        0.48200
H          2.22900       -0.00500       -0.07600
H         -0.97800       -0.85400       -1.00200
H         -0.95700        0.92500       -0.99500

